% clingo version 5.3.0
% Reading from ...rk_instances/benchmark_instance_5-2.lp ...
% Solving...
% Answer: 3
ANSWER
u_piece(1). u_piece(6). u_piece(11). u_piece(16). u_piece(21). l_piece(2,3,7). l_piece(5,4,10). l_piece(22,23,17). l_piece(25,24,20). num_u_pieces(5). num_l_pieces(4).
COST 5
OPTIMUM
% 
% Models         : 3
%   Optimum      : yes
% Optimization   : 5
% Calls          : 1
% Time           : 0.023s (Solving: 0.00s 1st Model: 0.00s Unsat: 0.00s)
% CPU Time       : 0.023s
